\ Model matlab
\ LP format - for model browsing. Use MPS format to capture full model detail.
Minimize
  20 P1
Subject To
 R0: 0.3214211101640129 P1 <= 1e+100
 R1: 0.3568590683622563 P1 <= 1e+100
 R2: 0.3433190217526208 P1 <= 1e+100
 R3: 0.2980525228457238 P1 <= 1e+100
 R4: 0.3200116525320811 P1 <= 1e+100
 R5: 0.1020167306210309 P1 <= 1e+100
 R6: 0.1030977469225252 P1 <= 1e+100
 R7: 0.1163742682389382 P1 <= 1e+100
 R8: 0.1259575435916258 P1 <= 1e+100
 R9: 0.0889945825232843 P1 <= 1e+100
 R10: 0.0248167613169841 P1 <= 1e+100
 R11: 0.0334802625212847 P1 <= 1e+100
 R12: 0.00964712775656307 P1 <= 1e+100
 R13: - 0.0087396603256007 P1 <= 1e+100
 R14: - 0.0214591384829652 P1 <= 1e+100
 R15: 0.00136603267955515 P1 <= 1e+100
 R16: <= 1e+100
 R17: 0.0209066328912744 P1 <= 1e+100
 R18: - 0.00541081112622814 P1 <= 1e+100
 R19: - 0.032172203622353 P1 <= 1e+100
 R20: <= 1e+100
 R21: 0.0687469137608318 P1 <= 1e+100
 R22: 0.00309353282610703 P1 <= 1e+100
 R23: <= 1e+100
 R24: 0.1797879986806494 P1 <= 1e+100
 R25: 0.0849696745369357 P1 <= 1e+100
 R26: 0.0554165810247907 P1 <= 1e+100
 R27: 0.0646252002761742 P1 <= 1e+100
 R28: 0.0396362745862096 P1 <= 1e+100
 R29: 0.0100421375145001 P1 <= 1e+100
 R30: 0.052582988063814 P1 <= 1e+100
 R31: <= 1e+100
 R32: <= 1e+100
 R33: <= 1e+100
 R34: <= 1e+100
 R35: <= 1e+100
 R36: <= 1e+100
 R37: - 0.3214211101640129 P1 <= 1e+100
 R38: - 0.3568590683622563 P1 <= 1e+100
 R39: - 0.3433190217526208 P1 <= 1e+100
 R40: - 0.2980525228457238 P1 <= 1e+100
 R41: - 0.3200116525320811 P1 <= 1e+100
 R42: - 0.1020167306210309 P1 <= 1e+100
 R43: - 0.1030977469225252 P1 <= 1e+100
 R44: - 0.1163742682389382 P1 <= 1e+100
 R45: - 0.1259575435916258 P1 <= 1e+100
 R46: - 0.0889945825232843 P1 <= 1e+100
 R47: - 0.0248167613169841 P1 <= 1e+100
 R48: - 0.0334802625212847 P1 <= 1e+100
 R49: - 0.00964712775656307 P1 <= 1e+100
 R50: 0.0087396603256007 P1 <= 1e+100
 R51: 0.0214591384829652 P1 <= 1e+100
 R52: - 0.00136603267955515 P1 <= 1e+100
 R53: <= 1e+100
 R54: - 0.0209066328912744 P1 <= 1e+100
 R55: 0.00541081112622814 P1 <= 1e+100
 R56: 0.032172203622353 P1 <= 1e+100
 R57: <= 1e+100
 R58: - 0.0687469137608318 P1 <= 1e+100
 R59: - 0.00309353282610703 P1 <= 1e+100
 R60: <= 1e+100
 R61: - 0.1797879986806494 P1 <= 1e+100
 R62: - 0.0849696745369357 P1 <= 1e+100
 R63: - 0.0554165810247907 P1 <= 1e+100
 R64: - 0.0646252002761742 P1 <= 1e+100
 R65: - 0.0396362745862096 P1 <= 1e+100
 R66: - 0.0100421375145001 P1 <= 1e+100
 R67: - 0.052582988063814 P1 <= 1e+100
 R68: <= 1e+100
 R69: <= 1e+100
 R70: <= 1e+100
 R71: <= 1e+100
 R72: <= 1e+100
 R73: <= 1e+100
 R74: P1 = 3.715
 R75: P1 = 2.3
Bounds
 P1 <= 10
End
